NAME: tsp5_9
COMMENT: 5-tsp problem (Padberg/Rinaldi)
TYPE: TSP
DIMENSION: 5
EDGE_WEIGHT_TYPE : EUC_2D
NODE_COORD_SECTION
1.00 35.64 18.03
2.00 2.45 35.03
3.00 35.17 9.76
4.00 14.01 24.41
5.00 20.01 32.42
